NAME : a280
COMMENT : Tour length 3818
TYPE : TOUR
DIMENSION : 280
TOUR_SECTION
1
280
279
278
277
276
275
274
273
272
271
16
17
18
19
20
21
128
127
126
125
270
269
268
267
266
140
141
142
143
144
200
201
196
195
265
264
263
262
261
260
259
258
257
254
253
208
207
212
213
216
217
220
221
256
255
252
209
210
211
214
215
218
219
222
251
250
249
248
247
245
246
231
232
233
234
244
243
242
241
240
239
238
237
236
235
230
229
228
227
226
225
224
223
206
205
204
203
202
199
198
197
194
193
192
191
190
189
188
187
186
185
184
183
182
181
176
177
151
152
156
153
155
154
129
180
179
178
175
174
173
172
171
170
169
101
168
167
166
165
164
163
162
161
160
159
158
157
119
120
121
122
123
124
30
31
32
150
149
148
147
146
145
139
138
137
136
135
134
133
132
131
130
29
33
34
40
55
69
70
71
72
73
74
75
77
78
95
96
118
117
115
114
111
110
108
104
103
102
100
116
113
112
109
90
91
92
99
107
106
105
89
82
98
97
94
93
88
87
86
85
84
83
81
80
79
76
67
68
66
65
64
63
62
61
60
43
42
41
39
38
37
59
58
57
56
54
53
52
51
50
49
48
47
46
45
44
36
35
28
27
26
22
25
23
24
14
13
12
11
10
8
7
15
9
6
5
4
3
2
1
-1
EOF